Reading model...
...model read.
creating competitive generators file...
...competitive generators recorded.
Loading data...
.. real-time data read.
Compiling instance...
...instance created.
Creating Offer Mitigation (model will solve as dispatch if TRUE)...
...storage offer mitigation file created
Converting model to MPEC...
...converted
NOTE: initial MIP solve with only storage competitive to get feasible solution
Solving...

Welcome to IBM(R) ILOG(R) CPLEX(R) Interactive Optimizer 12.10.0.0
  with Simplex, Mixed Integer & Barrier Optimizers
5725-A06 5725-A29 5724-Y48 5724-Y49 5724-Y54 5724-Y55 5655-Y21
Copyright IBM Corp. 1988, 2019.  All Rights Reserved.

Type 'help' for a list of available commands.
Type 'help' followed by a command name for more
information on commands.

CPLEX> Logfile 'cplex.log' closed.
Logfile 'C:\Users\wenmi\Desktop\competitiveMPEC\logs\tmpwgoe657t.cplex.log' open.
CPLEX> New value for parallel optimization mode: -1
CPLEX> New value for mixed integer optimality gap tolerance: 0.05
CPLEX> New value for deterministic time limit in ticks: 100000
CPLEX> Problem 'C:\Users\wenmi\Desktop\competitiveMPEC\logs\tmpuq8br8_s.pyomo.lp' read.
Read time = 0.31 sec. (27.41 ticks)
CPLEX> Problem name         : C:\Users\wenmi\Desktop\competitiveMPEC\logs\tmpuq8br8_s.pyomo.lp
Objective sense      : Maximize
Variables            :  107779  [Nneg: 1,  Box: 44054,  Free: 8928,
                                 Binary: 54796]
Objective nonzeros   :   17522
Linear constraints   :  246995  [Less: 82866,  Greater: 118424,  Equal: 45705]
  Nonzeros           :  580829
  RHS nonzeros       :  134591

Variables            : Min LB: -5000.000        Max UB: 1000000.       
Objective nonzeros   : Min   : 0.01666667       Max   : 2500.000       
Linear constraints   :
  Nonzeros           : Min   : 0.01666667       Max   : 1000000.       
  RHS nonzeros       : Min   : 0.01666667       Max   : 1000000.       
CPLEX> Version identifier: 12.10.0.0 | 2019-11-26 | 843d4de2ae
CPXPARAM_Parallel                                -1
CPXPARAM_DetTimeLimit                            100000
CPXPARAM_MIP_Tolerances_MIPGap                   0.050000000000000003
Tried aggregator 3 times.
MIP Presolve eliminated 181713 rows and 41433 columns.
MIP Presolve added 6048 rows and 0 columns.
MIP Presolve modified 48880 coefficients.
Aggregator did 25787 substitutions.
Reduced MIP has 45543 rows, 38927 columns, and 126253 nonzeros.
Reduced MIP has 15298 binaries, 0 generals, 0 SOSs, and 0 indicators.
Presolve time = 0.33 sec. (327.71 ticks)
Probing fixed 729 vars, tightened 7005 bounds.
Probing time = 0.09 sec. (14.45 ticks)
Tried aggregator 2 times.
Detecting symmetries...
MIP Presolve eliminated 1650 rows and 1458 columns.
MIP Presolve modified 5489 coefficients.
Aggregator did 84 substitutions.
Reduced MIP has 43809 rows, 37385 columns, and 121243 nonzeros.
Reduced MIP has 14569 binaries, 0 generals, 0 SOSs, and 0 indicators.
Presolve time = 0.13 sec. (207.79 ticks)
Probing fixed 0 vars, tightened 331 bounds.
Probing time = 0.19 sec. (19.28 ticks)
Clique table members: 81517.
MIP emphasis: balance optimality and feasibility.
MIP search method: dynamic search.
Parallel mode: opportunistic, using up to 16 threads.
Root relaxation solution time = 0.59 sec. (1704.92 ticks)

        Nodes                                         Cuts/
   Node  Left     Objective  IInf  Best Integer    Best Bound    ItCnt     Gap

      0     0        0.0000   180                      0.0000     9486         
*     0+    0                            0.0000        0.0000             0.00%

Root node processing (before b&c):
  Real time             =    1.72 sec. (2717.27 ticks)
Parallel b&c, 16 threads:
  Real time             =    0.00 sec. (0.00 ticks)
  Sync time (average)   =    0.00 sec.
  Wait time (average)   =    0.00 sec.
                          ------------
Total (root+branch&cut) =    1.72 sec. (2717.27 ticks)

Solution pool: 1 solution saved.

MIP - Integer optimal, tolerance (0.05/1e-06):  Objective =  3.7225618144e-09
Current MIP best bound =  3.9646650407e-09 (gap = 2.42103e-10, 0.00%)
Solution time =    1.72 sec.  Iterations = 9486  Nodes = 0 (1)
Deterministic time = 2717.58 ticks  (1580.91 ticks/sec)

CPLEX> Incumbent solution written to file 'C:\Users\wenmi\Desktop\competitiveMPEC\logs\tmpkxclxtrm.cplex.sol'.
CPLEX> NOTE: no warmstart specified for MIP iteration, default behavior is true
NOTE: resolving with all competitive generators using storage-only solution to warmstart
Solving...

Welcome to IBM(R) ILOG(R) CPLEX(R) Interactive Optimizer 12.10.0.0
  with Simplex, Mixed Integer & Barrier Optimizers
5725-A06 5725-A29 5724-Y48 5724-Y49 5724-Y54 5724-Y55 5655-Y21
Copyright IBM Corp. 1988, 2019.  All Rights Reserved.

Type 'help' for a list of available commands.
Type 'help' followed by a command name for more
information on commands.

CPLEX> Logfile 'cplex.log' closed.
Logfile 'C:\Users\wenmi\Desktop\competitiveMPEC\logs\tmplzkkgd7a.cplex.log' open.
CPLEX> New value for parallel optimization mode: -1
CPLEX> New value for mixed integer optimality gap tolerance: 0.05
CPLEX> New value for deterministic time limit in ticks: 100000
CPLEX> Problem 'C:\Users\wenmi\Desktop\competitiveMPEC\logs\tmpdpukgzq1.pyomo.lp' read.
Read time = 0.33 sec. (27.45 ticks)
CPLEX> MIP start file 'C:\Users\wenmi\Desktop\competitiveMPEC\logs\tmpl8xpkbnc.cplex.mst' read.
CPLEX> Problem name         : C:\Users\wenmi\Desktop\competitiveMPEC\logs\tmpdpukgzq1.pyomo.lp
Objective sense      : Maximize
Variables            :  109219  [Nneg: 1,  Box: 45494,  Free: 8928,
                                 Binary: 54796]
Objective nonzeros   :   18914
Linear constraints   :  246995  [Less: 82866,  Greater: 118424,  Equal: 45705]
  Nonzeros           :  580829
  RHS nonzeros       :  134591

Variables            : Min LB: -5000.000        Max UB: 1000000.       
Objective nonzeros   : Min   : 0.01666667       Max   : 2500.000       
Linear constraints   :
  Nonzeros           : Min   : 0.01666667       Max   : 1000000.       
  RHS nonzeros       : Min   : 0.01666667       Max   : 1000000.       
CPLEX> Version identifier: 12.10.0.0 | 2019-11-26 | 843d4de2ae
CPXPARAM_Parallel                                -1
CPXPARAM_DetTimeLimit                            100000
CPXPARAM_MIP_Tolerances_MIPGap                   0.050000000000000003
1 of 1 MIP starts provided solutions.
MIP start 'm1' defined initial solution with objective 0.0000.
Tried aggregator 3 times.
MIP Presolve eliminated 181713 rows and 42873 columns.
MIP Presolve added 6048 rows and 0 columns.
MIP Presolve modified 48880 coefficients.
Aggregator did 25787 substitutions.
Reduced MIP has 45543 rows, 38927 columns, and 126253 nonzeros.
Reduced MIP has 15298 binaries, 0 generals, 0 SOSs, and 0 indicators.
Presolve time = 0.34 sec. (328.42 ticks)
Probing fixed 729 vars, tightened 7005 bounds.
Probing time = 0.08 sec. (14.45 ticks)
Tried aggregator 2 times.
Detecting symmetries...
MIP Presolve eliminated 1650 rows and 1458 columns.
MIP Presolve modified 5489 coefficients.
Aggregator did 84 substitutions.
Reduced MIP has 43809 rows, 37385 columns, and 121243 nonzeros.
Reduced MIP has 14569 binaries, 0 generals, 0 SOSs, and 0 indicators.
Presolve time = 0.13 sec. (207.80 ticks)
Probing fixed 0 vars, tightened 311 bounds.
Probing time = 0.14 sec. (15.06 ticks)
Clique table members: 81272.
MIP emphasis: balance optimality and feasibility.
MIP search method: dynamic search.
Parallel mode: opportunistic, using up to 16 threads.
Root relaxation solution time = 0.70 sec. (1718.61 ticks)

        Nodes                                         Cuts/
   Node  Left     Objective  IInf  Best Integer    Best Bound    ItCnt     Gap

*     0+    0                            0.0000   1.37524e+07              --- 
      0     0    40828.1617   420        0.0000    40828.1617    11922     --- 
      0     0    40399.5022   420        0.0000     Cuts: 627    12645     --- 
      0     0    40144.7083   420        0.0000     Cuts: 306    13182     --- 
      0     0    40122.0115   420        0.0000 Flowcuts: 140    13332     --- 
      0     0    40096.1503   420        0.0000     Cuts: 255    13597     --- 
      0     0    40090.2317   420        0.0000  Flowcuts: 13    13629     --- 
      0     0    40090.2317   420        0.0000  Flowcuts: 12    13637     --- 
      0    16    38631.8409   399        0.0000    40090.2317    13774     --- 
Elapsed time = 6.24 sec. (6509.02 ticks, tree = 0.02 MB, solutions = 1)
     98    37    39043.6050   423        0.0000    39913.8942    14692     --- 
    191    59    36182.1738   387        0.0000    39913.8942    16203     --- 
    319   231    33396.3696   324        0.0000    39913.8942    24453     --- 
    432   195    31973.2858   320        0.0000    39913.8942    22949     --- 
    564   306    30641.1598   336        0.0000    39913.8942    27309     --- 
    698   354    28893.5418   294        0.0000    39913.8942    29770     --- 
    839   366    28569.7714   276        0.0000    39913.8942    30196     --- 
    988   727    26080.7619   253        0.0000    39913.8942    45217     --- 
   1141   605    24846.8322   250        0.0000    39913.8942    39950     --- 
   1656   877    22343.5309   192        0.0000    39913.8942    49512     --- 
Elapsed time = 21.39 sec. (9618.96 ticks, tree = 15.41 MB, solutions = 1)
   2128  1260    17061.4179   139        0.0000    39913.8942    60380     --- 
   2614  1729    19617.0444   152        0.0000    39913.8942    71765     --- 
   3243  2152    14549.0884   119        0.0000    39913.8942    79738     --- 
   3883  2584    12473.2316    81        0.0000    39913.8942    86356     --- 
   4423  3284     1653.6152    80        0.0000    39913.8942   100779     --- 
   4740  3316    33271.9585   383        0.0000    39913.8942   102511     --- 

Performing restart 1

Repeating presolve.
Tried aggregator 3 times.
MIP Presolve eliminated 1506 rows and 1362 columns.
MIP Presolve modified 36421 coefficients.
Aggregator did 400 substitutions.
Reduced MIP has 41903 rows, 35623 columns, and 114737 nonzeros.
Reduced MIP has 13984 binaries, 0 generals, 0 SOSs, and 0 indicators.
Presolve time = 0.13 sec. (132.95 ticks)
Tried aggregator 1 time.
MIP Presolve eliminated 912 rows and 768 columns.
MIP Presolve modified 15989 coefficients.
Reduced MIP has 40991 rows, 34855 columns, and 112137 nonzeros.
Reduced MIP has 13600 binaries, 0 generals, 0 SOSs, and 0 indicators.
Presolve time = 0.05 sec. (51.57 ticks)
Tried aggregator 1 time.
MIP Presolve eliminated 2 rows and 2 columns.
MIP Presolve modified 12670 coefficients.
Reduced MIP has 40989 rows, 34853 columns, and 112131 nonzeros.
Reduced MIP has 13599 binaries, 0 generals, 0 SOSs, and 0 indicators.
Presolve time = 0.09 sec. (114.12 ticks)
Represolve time = 0.95 sec. (494.90 ticks)
   4741     0    34982.5125   736        0.0000     Cuts: 683   142405     --- 
   4741     0    33290.3170   736        0.0000     Cuts: 496   142716     --- 
   4741     0    33287.7406   736        0.0000     Cuts: 211   142859     --- 
   4741     0    33280.9468   736        0.0000     Cuts: 234   142982     --- 
   4741     0    33280.9468   736        0.0000      Cuts: 79   143039     --- 
   4741     0    33275.3814   736        0.0000      Cuts: 45   143084     --- 
   4741     0    33275.0647   736        0.0000      Cuts: 24   143111     --- 
   4741     0    33274.3106   736        0.0000      Cuts: 27   143131     --- 
   4741     0    33274.3106   736        0.0000       Cuts: 7   143141     --- 
   4741     3    infeasible              0.0000    31289.7731   143534     --- 
   4781    15    27149.4470   543        0.0000    28794.6200   143820     --- 
   4846    28    24500.5952   559        0.0000    28794.6200   144231     --- 
   4926    52    19922.5495   569        0.0000    28794.6200   145126     --- 
Elapsed time = 72.64 sec. (26765.53 ticks, tree = 0.92 MB, solutions = 1)
   5009    61    18905.9902   546        0.0000    28794.6200   145536     --- 
   5103    49    16145.4149   557        0.0000    28794.6200   145119     --- 
   5193    55    25986.7513   521        0.0000    28794.6200   145463     --- 
   5318    80    19114.2302   431        0.0000    28794.6200   146485     --- 
   5441   175    14186.8053   521        0.0000    28776.8724   150665     --- 
   5647   199    22038.1112   461        0.0000    28776.8724   151921     --- 
   5801   316    10556.0858   395        0.0000    28776.8724   157493     --- 
   5917    99     7531.1068   523        0.0000    28776.8724   147662     --- 
   6087   158    27600.8988   551        0.0000    28776.8724   150112     --- 
   6298   263    13841.0467   487        0.0000    28776.8724   154602     --- 
Elapsed time = 120.33 sec. (36375.81 ticks, tree = 3.28 MB, solutions = 1)
   6553   593    11787.0021   523        0.0000    28776.8724   170041     --- 
   6919   488     9413.7670   507        0.0000    28539.1098   165435     --- 
   7418  1532    23536.9656   520        0.0000    28047.2252   205965     --- 
   7899  1873    21163.2668   486        0.0000    28047.2252   217251     --- 
   8440  1834     9620.7453   454        0.0000    28047.2252   215536     --- 
   9011   648      335.5055   482        0.0000    28047.2252   172172     --- 
   9608  1430      604.1663   540        0.0000    28047.2252   201206     --- 
  10249  1930     2201.1176   513        0.0000    28047.2252   218758     --- 
  10831  1459    10957.4806   280        0.0000    27600.8988   201764     --- 
  11427  3473     9748.4324   452        0.0000    27260.2855   273881     --- 
Elapsed time = 170.78 sec. (45933.97 ticks, tree = 45.04 MB, solutions = 1)
  11957  3506    11655.5318   452        0.0000    27260.2855   274999     --- 
  12499  5044    11335.0841   493        0.0000    26958.9954   326316     --- 
  13007  5079    17250.5613   425        0.0000    26958.9954   327383     --- 
  13555  4706    20852.6127   448        0.0000    26958.9954   315589     --- 
  14173  5256    13191.0280   451        0.0000    26917.0255   334173     --- 
  14802  6230    17986.5320   509        0.0000    26781.4271   368296     --- 
  15358  4135    18496.1867   472        0.0000    26451.6603   295884     --- 
  15912  5612     7264.4053   472        0.0000    26451.6603   346292     --- 
  16465  6114    21589.8438   489        0.0000    26175.3719   364862     --- 
  17012  7870    22865.2632   479        0.0000    26134.0567   427313     --- 
Elapsed time = 220.77 sec. (55481.17 ticks, tree = 104.03 MB, solutions = 1)
  17564  7145    18628.5329   438        0.0000    26134.0567   400265     --- 
  18117  7921    21007.1149   489        0.0000    25717.3718   429286     --- 
  18687  9123     9192.8928   429        0.0000    25717.3718   471279     --- 
  19275  8297        cutoff              0.0000    25329.9598   441307     --- 
  19887  9334    18928.1999   411        0.0000    25329.9598   479219     --- 
  20464 10242    14865.1870   451        0.0000    25329.9598   514198     --- 
  21066 10086    11647.2581   441        0.0000    25329.9598   507346     --- 
  21596  8403     9357.3880   249        0.0000    25160.5891   446142     --- 
  22122  9979    10311.3319   433        0.0000    25160.5891   502934     --- 
  22677 11011    18719.7007   529        0.0000    24897.1147   542909     --- 
Elapsed time = 269.77 sec. (65039.46 ticks, tree = 146.06 MB, solutions = 1)
  23133 11222    16112.0796   502        0.0000    24667.8837   550091     --- 
  23489 10760        cutoff              0.0000    24667.8837   532779     --- 
  23809 11705     7535.1745   480        0.0000    24667.8837   566894     --- 
  24141 12166    12636.1128   393        0.0000    24393.1202   582677     --- 
  24494 11392      847.1020   531        0.0000    24393.1202   556832     --- 
  24875 13392      348.7593   483        0.0000    24393.1202   628649     --- 
  25267 13403    12707.5859   441        0.0000    24393.1202   629048     --- 
  25643 15265    21396.6461   509        0.0000    24190.8057   698811     --- 
  26028 13711    12293.9116   450        0.0000    23822.7032   639353     --- 
  26365 15013    13181.9206   455        0.0000    23822.7032   688034     --- 
Elapsed time = 317.80 sec. (74592.95 ticks, tree = 199.48 MB, solutions = 1)
  26735 15041      999.4817   297        0.0000    23822.7032   689103     --- 
  27138 15071     5508.7490   469        0.0000    23822.7032   689963     --- 
  27559 15850    14942.2803   482        0.0000    23545.1091   719920     --- 
  28046 16257    21781.0487   431        0.0000    23545.1091   735543     --- 
  28542 16151    19826.8858   440        0.0000    23545.1091   730715     --- 
  29082 16335      251.7116   452        0.0000    23545.1091   737679     --- 
  29589 15001    18442.5740   539        0.0000    23435.7120   688026     --- 
  30154 16232    19111.7132   486        0.0000    23263.6284   733659     --- 
  30758 16269    15716.3552   458        0.0000    23263.6284   734755     --- 
  31353 17449    11573.4912   465        0.0000    23263.6284   777530     --- 
Elapsed time = 366.84 sec. (84152.57 ticks, tree = 232.89 MB, solutions = 1)
  31922 17035    10777.4248   421        0.0000    23092.4775   763203     --- 
  32526 16319    12291.7352   426        0.0000    23092.4775   736425     --- 
  33134 17632     9751.6056   446        0.0000    23092.4775   783714     --- 
  33706 16919     8754.3230   440        0.0000    23051.4194   758584     --- 
  34318 19095     7311.4169   419        0.0000    22906.3682   835306     --- 
  34831 17754    13501.3439   415        0.0000    22906.3682   787450     --- 
  35376 19665    16095.6191   446        0.0000    22906.3682   855879     --- 
  35909 18591     5172.3942   521        0.0000    22906.3682   817627     --- 
  36454 19717     8136.3954   459        0.0000    22906.3682   857813     --- 
  36943 21972     6093.6998   468        0.0000    22906.3682   938764     --- 
Elapsed time = 403.49 sec. (93710.57 ticks, tree = 293.30 MB, solutions = 1)
  37438 20934    17083.7359   437        0.0000    22906.3682   901667     --- 
  37934 21357     7935.1487   320        0.0000    22906.3682   916613     --- 
  38380 20986     5994.6389   476        0.0000    22906.3682   903300     --- 
  38778 21675     9031.0191   448        0.0000    22906.3682   927500     --- 
  39059 22138     2733.9746   274        0.0000    22906.3682   944583     --- 
  39261 21310     7439.4725   372        0.0000    22906.3682   914703     --- 

GUB cover cuts applied:  2
Clique cuts applied:  43
Cover cuts applied:  36
Implied bound cuts applied:  159
Flow cuts applied:  738
Mixed integer rounding cuts applied:  160
Lift and project cuts applied:  2
Gomory fractional cuts applied:  24

Root node processing (before b&c):
  Real time             =    4.77 sec. (6379.47 ticks)
Parallel b&c, 16 threads:
  Real time             =  403.20 sec. (93660.69 ticks)
  Sync time (average)   =    4.25 sec.
  Wait time (average)   =    0.06 sec.
                          ------------
Total (root+branch&cut) =  407.97 sec. (100040.16 ticks)

Solution pool: 1 solution saved.

MIP - Deterministic time limit exceeded, integer feasible:  Objective =  1.3642420527e-10
Current MIP best bound =  2.2320551127e+04 (gap = 22320.6, 9.4e+15%)
Solution time =  407.99 sec.  Iterations = 1090446  Nodes = 39323 (26150)
Deterministic time = 100040.47 ticks  (245.21 ticks/sec)

CPLEX> Incumbent solution written to file 'C:\Users\wenmi\Desktop\competitiveMPEC\logs\tmpu85l_fbn.cplex.sol'.
CPLEX> Exporting results... 
